Traveling Salesman Problem/TSP_generados/Aleatorio1620391050_13.tsp
NAME: Aleatorio1620391050_13.tsp
COMMENT: Randomly generated scenario
TYPE: TSP
DIMENSION: 13
EDGE_WEIGHT_TYPE: ATT
NODE_COORD_SECTION
1 42.89 39.71
2 40.0 18.3
3 22.84 24.44
4 4.87 8.6
5 39.3 43.08
6 2.67 4.73
7 35.77 14.14
8 42.32 4.04
9 25.34 30.45
10 11.34 22.67
11 33.2 29.39
12 11.9 8.82
13 15.94 6.01
