Traveling Salesman Problem/TSP_generados/Aleatorio1620391050_13.opt.tour
NAME: Aleatorio1620391050_13.opt.tour
COMMENT: Optimal solution for Aleatorio1620391050_13 (146.97034263386607)
TYPE: TOUR
DIMENSION: 13
TOUR_SECTION
1 2 7 8 13 12 6 4 10 3 9 11 5
-1
EOF
